Optimal - objective value 3.00000000
      1 x_0_1                    1                       0
     12 x_1_2                    1                       0
     20 x_2_0                    1                       0
     30 x_3_0                    1                       0
     42 x_4_2                    1                       0
     52 x_5_2                    1                       0
     62 x_6_2                    1                       0
     71 x_7_1                    1                       0
     82 x_8_2                    1                       0
     90 x_9_0                    1                       0
    100 y_0                      1                       0
    101 y_1                      1                       1
    102 y_2                      1         1.75541673428835e-16
